NAME : portcgen-24-15
COMMENT : portcgen N=24, seed=15
TYPE : TSP
DIMENSION : 24
EDGE_WEIGHT_TYPE : EUC_2D
NODE_COORD_SECTION
1 105823 96826
2 -346961 -236691
3 161462 62369
4 177657 302479
5 46755 -319101
6 336536 -312504
7 247859 -8101
8 -228899 158061
9 344201 95452
10 -47134 -255440
11 91026 140231
12 -175514 167380
13 331897 -249618
14 -171951 -237765
15 301496 17421
16 -40675 -291148
17 -94179 124717
18 320057 214319
19 -397603 -7283
20 254899 -127348
21 -120322 22464
22 115926 136879
23 39914 -205534
24 196060 -161930
